Route #1: 1 25 15 18 3 11 35 19 7 21 1
Route #2: 1 44 6 31 2 12 37 1
Route #3: 1 5 28 23 9 40 13 33 29 20 24 1
Route #4: 1 14 30 26 27 43 17 1
Route #5: 1 38 36 45 41 34 8 16 39 1
Route #6: 1 42 32 22 10 1
cost 751.2655699150154
